nApps = 42
nRes = 6
nActs = 92
nNetworks = 4

assignmentToResources = [1,1,1,2,1,1,1,2,1,2,1,2,2,1,2,2,1,2,1,2,1,2,2,1,1,2,2,1,2,1,3,3,4,4,4,4,3,4,4,4,4,3,4,4,4,4,4,4,3,4,4,4,4,5,3,6,4,5,3,6,4,5,4,5,3,6,4,5,4,5,6,6,5,5,5,5,6,5,5,5,5,6,5,5,5,5,5,5,6,5,5,5];

processingTimes = [56,64,136,96,96,88,128,112,136,136,72,48,80,128,136,72,56,112,136,112,112,104,120,104,104,104,112,48,112,128,3,7,4,500,5,500,4,500,500,8,4,3,5,5,3,3,4,500,3,3,3,3,500,500,500,500,500,500,500,500,500,500,150,150,3,3,4,4,3,3,3,7,4,500,5,500,4,500,500,8,4,3,5,5,3,3,4,500,3,3,3,3];

periods = [5000,10000,5000,5000,10000,10000,10000,10000,10000,10000,10000,1000,10000,10000,5000,10000,10000,2000,2000,10000,10000,10000,10000,10000,10000,10000,5000,1000,10000,10000,5000,10000,10000,10000,10000,10000,10000,10000,10000,10000,10000,10000,2000,2000,2000,10000,10000,10000,10000,10000,5000,5000,5000,5000,5000,5000,5000,5000,10000,10000,10000,10000,1000,1000,10000,10000,10000,10000,10000,10000,5000,10000,10000,10000,10000,10000,10000,10000,10000,10000,10000,10000,2000,2000,2000,10000,10000,10000,10000,10000,5000,5000];

assignmentToClusters = [1,2,1,3,4,5,6,7,8,9,6,10,6,11,1,12,13,14,15,12,13,16,17,18,12,19,1,10,13,20,21,22,23,24,25,26,27,28,29,30,31,32,33,34,35,36,37,38,39,40,41,42,1,1,1,1,1,1,6,6,6,6,10,10,12,12,12,12,13,13,21,22,23,24,25,26,27,28,29,30,31,32,33,34,35,36,37,38,39,40,41,42];

precedenceAdjList = [[53],[],[57],[],[],[],[],[],[],[],[61],[],[59],[],[55],[65],[20],[],[],[],[69],[],[],[],[67],[],[],[63],[],[],[],[],[],[],[],[],[],[],[],[],[],[],[],[],[],[],[],[],[],[],[],[],[14],[52],[2],[54],[26],[56],[6],[58],[12],[60],[11],[62],[24],[64],[19],[66],[28],[68],[30],[31],[32],[33],[34],[35],[36],[37],[38],[39],[40],[41],[42],[43],[44],[45],[46],[47],[48],[49],[50],[51]];